problems/csplib-prob015/SchursLemma-models/noch/O2/lingeling/model_1_2-7-14-solution000001.solution
language Essence 1.3

letting boxes be partition({1, 2, 4}, {3, 8}, {5, 6}, {7, 11, 12}, {9, 14}, {10}, {13})
